241080532140998203506,12,1,2,08,6,1,2,07,3,1,2,02,3,1,2,08,10,1,2,04,11,1,2,014,11,1,2,015,5,1,2,05,8,1,2,014,1,1,2,011,14,1,2,03,14,1,2,010,10,1,2,01,10,1,2,03,8,1,2,08,13,1,2,01,15,1,2,08,2,1,2,01,3,1,2,012,7,1,2,03,3,1,2,014,6,1,2,010,7,1,2,07,1,1,2,02,7,1,2,09,5,1,2,08,15,1,2,05,7,1,2,06,10,1,2,03,14,1,2,05,11,1,2,03,5,1,2,015,2,1,2,08,9,1,2,05,4,1,2,015,4,1,2,013,6,1,2,02,6,1,2,05,11,1,2,011,14,1,2,01,3,1,2,07,10,1,2,09,3,1,2,013,8,1,2,09,1,1,2,011,2,1,2,012,14,1,2,04,13,1,2,012,2,1,2,05,9,1,2,0